QBPP_HJ*_35_025_20_2
35 98 21
44 47 42 11 30 27 17 42 16 43 29 25 17 30 2 49 28 6 37 42 33 18 43 30 44 16 16 12 13 33 42 6 33 23 29
    0    0  -10   31    0    0    0    0   11    0    0    0    0    0    0    0   24    0    0   41    0    0    0  -20    0    0    0    0    0  -10    0    0    6    0    0
    0    0   -3   -8    0  -50    0   18    0   18    9    0  -19    0    0    0    0    0    0    0   28  -38    0    0  -45    0    0    0   -3   13   50    0    0  -32    0
  -10   -3    0    0    0    0    0    0    0    0    0   46  -47    0    0    0    0    0   24    0    0    0    0    0    0    0    0    0    0    0   39   25    0    8    0
   31   -8    0    0    0    0    0  -22    0    0   38  -21    0    0    0    5    0    0   -5    0   21    0  -41   26   -9    0    0    0    1    0   -6    0    0    0    0
    0    0    0    0    0    0   19    7    0    0    0    0    0    0  -24    0    0    0    0    0    0    0    0   -8    0    6    0  -46    0    0    0    0    0    0    0
    0  -50    0    0    0    0   22    0    0    0    0    0  -18    0    0    0    0    0    0    0  -41   23    0    0    0  -46    0    0  -16    3    0  -28   -9   -8    0
    0    0    0    0   19   22    0    0   20    0    0   -3    0    0    0  -11    0  -50   29    0    0    0    0    0    0    0    0   23  -39    0    0  -50    0   30    0
    0   18    0  -22    7    0    0    0    0   48    8    0    0    3   14    0    0    0    0    0    0    0    0    0    0    0    0    0    0  -48    0    0    0  -27    0
   11    0    0    0    0    0   20    0    0  -17    0    0    0   -9    0    0    0   41    0    0    0    0  -25    0    0    0    0  -31   34    0   -2    0    8    0    0
    0   18    0    0    0    0    0   48  -17    0    0    0    0    0    0    0    0    0    0    0    0  -24    0    0    0    0    0    0    0    0   49    0    0    0    0
    0    9    0   38    0    0    0    8    0    0    0   -7    0    0    0    0  -19    0    0   16    0    0    0    0    0    0    0    0    0   15   41    0   12    0  -37
    0    0   46  -21    0    0   -3    0    0    0   -7    0    0   -6    0    0    0   28    0    0    0    0  -16   25    0    0    0    4   -5    0    0  -35    0    0    0
    0  -19  -47    0    0  -18    0    0    0    0    0    0    0    0    0  -36   10  -34  -18  -31  -12    0    0   17    0   43    0    0    0    0    0    0    0    0   35
    0    0    0    0    0    0    0    3   -9    0    0   -6    0    0    0    0    0    0    0    0   30    0    0    0   45    0    0    0    0    0    0    0    0    0    0
    0    0    0    0  -24    0    0   14    0    0    0    0    0    0    0    0    9    0    0    0   46    0    0    0    0    0  -15    0    0    0    0    0    0    0    0
    0    0    0    5    0    0  -11    0    0    0    0    0  -36    0    0    0    0    0  -42    0   19  -11    0  -21   -9    0    8    0    0    0    0    0   45    0    0
   24    0    0    0    0    0    0    0    0    0  -19    0   10    0    9    0    0    0    0    0   13    0    0    0   -6  -26    0    0    0    0    0    0  -47    0    0
    0    0    0    0    0    0  -50    0   41    0    0   28  -34    0    0    0    0    0    0    0    0    0    0   -2    0    0    0    0   50    0   10    0    0    0   31
    0    0   24   -5    0    0   29    0    0    0    0    0  -18    0    0  -42    0    0    0    0    0    0    0    0    0  -17    0    0    0    0    0    0    0    0    0
   41    0    0    0    0    0    0    0    0    0   16    0  -31    0    0    0    0    0    0    0   36   46  -31    0    0    0    0    0    0    0    0    0    0    0    0
    0   28    0   21    0  -41    0    0    0    0    0    0  -12   30   46   19   13    0    0   36    0    0    0    0    0    0    0    0    0    0    0   35    0    0    0
    0  -38    0    0    0   23    0    0    0  -24    0    0    0    0    0  -11    0    0    0   46    0    0    0  -34    0    0    0    0   28    0    0    0  -46    0    1
    0    0    0  -41    0    0    0    0  -25    0    0  -16    0    0    0    0    0    0    0  -31    0    0    0    0    0   33    0   27    0    0    0  -20    0    0    0
  -20    0    0   26   -8    0    0    0    0    0    0   25   17    0    0  -21    0   -2    0    0    0  -34    0    0   27   -4    0    0  -24    0    0    0    0  -13  -36
    0  -45    0   -9    0    0    0    0    0    0    0    0    0   45    0   -9   -6    0    0    0    0    0    0   27    0   -7    0    0  -27    0    0    0    0    0    0
    0    0    0    0    6  -46    0    0    0    0    0    0   43    0    0    0  -26    0  -17    0    0    0   33   -4   -7    0    0    1  -17    0    0    0    0    0    0
    0    0    0    0    0    0    0    0    0    0    0    0    0    0  -15    8    0    0    0    0    0    0    0    0    0    0    0    0  -39    0    0    0    0    0    0
    0    0    0    0  -46    0   23    0  -31    0    0    4    0    0    0    0    0    0    0    0    0    0   27    0    0    1    0    0    0    0    0  -14    0   47    0
    0   -3    0    1    0  -16  -39    0   34    0    0   -5    0    0    0    0    0   50    0    0    0   28    0  -24  -27  -17  -39    0    0    0    0  -15    0  -35    0
  -10   13    0    0    0    3    0  -48    0    0   15    0    0    0    0    0    0    0    0    0    0    0    0    0    0    0    0    0    0    0    0    0    0    0    0
    0   50   39   -6    0    0    0    0   -2   49   41    0    0    0    0    0    0   10    0    0    0    0    0    0    0    0    0    0    0    0    0    0    0    0    0
    0    0   25    0    0  -28  -50    0    0    0    0  -35    0    0    0    0    0    0    0    0   35    0  -20    0    0    0    0  -14  -15    0    0    0    0    0    0
    6    0    0    0    0   -9    0    0    8    0   12    0    0    0    0   45  -47    0    0    0    0  -46    0    0    0    0    0    0    0    0    0    0    0    0    0
    0  -32    8    0    0   -8   30  -27    0    0    0    0    0    0    0    0    0    0    0    0    0    0    0  -13    0    0    0   47  -35    0    0    0    0    0    0
    0    0    0    0    0    0    0    0    0    0  -37    0   35    0    0    0    0   31    0    0    0    1    0  -36    0    0    0    0    0    0    0    0    0    0    0
